1 3 100 94899.18
1 3 200 100484.56
1 3 300 101382.84
2 3 100 133969.42
2 3 200 143280.34
2 3 300 138011.17
3 3 100 141131.39
3 3 200 139789.03
3 3 300 136136.03
4 3 100 128376.50
4 3 200 133472.14
4 3 300 129253.82
5 3 100 109918.73
5 3 200 109936.34
5 3 300 109968.91
